 22 4500 240 10 0 2
 266 235 0
 295 272 125 
 301 258 84 
 309 260 60 
 217 274 500 
 218 278 300 
 282 267 175 
 242 249 350 
 230 262 150 
 249 268 1100 
 256 267 4100 
 265 257 225 
 267 242 300 
 259 265 250 
 315 233 500 
 329 252 150 
 318 252 100 
 329 224 250 
 267 213 120 
 275 192 600 
 303 201 500 
 208 217 175 
 326 181 75 
